Normalized Data/p04_10_normalized_splitx10_0.vrp
NAME:p04_10_NORMALIZED_splitx10_
BEST_KNOWN: 0
COMMENT: 0
DIMENSION: 664
CAPACITY: 1000
EDGE_WEIGHT_FORMAT: FUNCTION
EDGE_WEIGHT_TYPE: EXACT_2D
NODE_COORD_SECTION
1 0.00000 0.00000
2 39 -5
3 39 -5
4 39 -5
5 39 -5
6 39 -5
7 39 -5
8 20 -10
9 20 -10
10 20 -10
11 47 -17
12 47 -17
13 47 -17
14 47 -17
15 34 28
16 34 28
17 34 28
18 34 28
19 38 16
20 38 16
21 38 16
22 38 16
23 38 16
24 38 16
25 -2 -48
26 -2 -48
27 -2 -48
28 -2 -48
29 -2 -48
30 1 -15
31 1 -15
32 1 -15
33 1 -15
34 22 40
35 22 40
36 22 40
37 22 40
38 22 40
39 -1 -47
40 -1 -47
41 -1 -47
42 -1 -47
43 -16 -45
44 -16 -45
45 -16 -45
46 -16 -45
47 40 -36
48 40 -36
49 40 -36
50 40 -36
51 40 -36
52 40 -36
53 40 -36
54 48 -12
55 48 -12
56 48 -12
57 48 -12
58 48 -12
59 48 -12
60 -11 40
61 38 46
62 38 46
63 38 46
64 -12 19
65 -12 19
66 -12 19
67 -12 19
68 -12 19
69 -12 19
70 -49 -39
71 -49 -39
72 -49 -39
73 -49 -39
74 9 15
75 9 15
76 10 35
77 10 35
78 10 35
79 10 35
80 10 35
81 -1 -24
82 -1 -24
83 -1 -24
84 -1 -24
85 35 -19
86 35 -19
87 35 -19
88 35 -19
89 35 -19
90 20 -43
91 20 -43
92 20 -43
93 15 -2
94 15 -2
95 15 -2
96 15 -2
97 13 3
98 13 3
99 13 3
100 13 3
101 13 3
102 13 3
103 38 50
104 38 50
105 38 50
106 38 50
107 38 50
108 38 50
109 24 -15
110 24 -15
111 24 -15
112 24 -15
113 24 -15
114 24 -15
115 24 -15
116 32 28
117 32 28
118 32 28
119 32 28
120 32 28
121 26 -42
122 26 -42
123 26 -42
124 26 -42
125 26 -42
126 26 -42
127 26 -42
128 -48 -35
129 -48 -35
130 23 -42
131 23 -42
132 23 -42
133 23 -42
134 23 -42
135 -45 -12
136 -45 -12
137 -45 -12
138 -45 -12
139 -45 -12
140 19 -43
141 19 -43
142 19 -43
143 19 -43
144 19 -43
145 19 -43
146 19 -43
147 -23 24
148 -23 24
149 -23 24
150 -23 24
151 27 10
152 27 10
153 25 -18
154 25 -18
155 25 -18
156 25 -18
157 25 -18
158 25 -18
159 25 -18
160 1 1
161 1 1
162 1 1
163 1 1
164 1 1
165 1 1
166 -24 -23
167 -24 -23
168 -24 -23
169 -24 -23
170 -24 -23
171 -24 -23
172 -26 44
173 -26 44
174 -26 44
175 -26 44
176 -26 44
177 -17 18
178 -17 18
179 -17 18
180 -17 18
181 5 -4
182 5 -4
183 5 -4
184 5 -4
185 5 -4
186 -31 -14
187 -31 -14
188 -31 -14
189 11 -6
190 11 -6
191 11 -6
192 11 -6
193 11 -6
194 11 -6
195 36 1
196 36 1
197 36 1
198 36 1
199 36 1
200 36 1
201 37 -14
202 37 -14
203 37 -14
204 37 -14
205 37 -14
206 -30 3
207 -30 3
208 -30 3
209 -30 3
210 -30 3
211 30 49
212 30 49
213 30 49
214 30 49
215 30 49
216 2 -35
217 2 -35
218 13 36
219 13 36
220 13 36
221 13 36
222 13 36
223 -7 -6
224 -7 -6
225 -7 -6
226 -7 -6
227 46 25
228 46 25
229 46 25
230 -34 -25
231 -34 -25
232 -34 -25
233 -34 -25
234 -34 -25
235 -12 -31
236 -12 -31
237 -12 -31
238 -12 -31
239 -12 -31
240 -12 -31
241 -48 -37
242 -48 -37
243 -48 -37
244 -48 -37
245 -48 -37
246 -48 -37
247 -43 -21
248 -43 -21
249 -43 -21
250 -43 -21
251 -43 -21
252 -43 -21
253 26 4
254 26 4
255 26 4
256 26 4
257 21 -47
258 21 -47
259 21 -47
260 21 -47
261 44 25
262 44 25
263 44 25
264 44 25
265 44 25
266 12 -18
267 12 -18
268 12 -18
269 -6 -28
270 -6 -28
271 -6 -28
272 -6 -28
273 49 18
274 49 18
275 49 18
276 -11 -42
277 -11 -42
278 -11 -42
279 -11 -42
280 -11 -42
281 1 -31
282 1 -31
283 1 -31
284 1 -31
285 1 -31
286 17 26
287 17 26
288 17 26
289 -9 43
290 -9 43
291 -9 43
292 -13 3
293 -13 3
294 -13 3
295 -13 3
296 -13 3
297 -13 3
298 6 -8
299 6 -8
300 6 -8
301 6 -8
302 6 -8
303 6 -8
304 -31 26
305 -31 26
306 -31 26
307 -31 26
308 -31 26
309 -31 26
310 -31 26
311 5 -13
312 5 -13
313 5 -13
314 5 -13
315 5 -13
316 5 -13
317 5 -13
318 2 -41
319 2 -41
320 2 -41
321 2 -41
322 2 -41
323 -28 -18
324 -28 -18
325 15 35
326 15 35
327 15 35
328 -46 5
329 -46 5
330 -13 24
331 -13 24
332 -42 -39
333 -42 -39
334 -42 -39
335 -42 -39
336 -42 -39
337 -42 -39
338 -42 -39
339 40 -30
340 40 -30
341 40 -30
342 40 -30
343 40 -30
344 8 -35
345 8 -35
346 8 -35
347 28 -24
348 28 -24
349 28 -24
350 28 -24
351 28 -24
352 -14 -48
353 -14 -48
354 -14 -48
355 -39 -9
356 -39 -9
357 -39 -9
358 -39 -9
359 -39 -9
360 -39 -9
361 -38 28
362 -38 28
363 -38 28
364 -38 28
365 -38 28
366 35 13
367 35 13
368 -34 28
369 -34 28
370 -33 47
371 -33 47
372 -33 47
373 -30 24
374 -30 24
375 -30 24
376 -30 24
377 -30 24
378 -16 15
379 -16 15
380 -16 15
381 -16 15
382 28 -5
383 28 -5
384 28 -5
385 28 -5
386 28 -5
387 28 -5
388 8 13
389 8 13
390 8 13
391 8 13
392 8 13
393 -5 36
394 -5 36
395 -5 36
396 -5 36
397 -5 36
398 -5 36
399 10 -14
400 10 -14
401 10 -14
402 10 -14
403 10 -14
404 -41 -29
405 -41 -29
406 -41 -29
407 -41 -29
408 -41 -29
409 -41 -29
410 -45 -2
411 -45 -2
412 -8 -33
413 -8 -33
414 -8 -33
415 26 -10
416 26 -10
417 26 -10
418 26 -10
419 26 -10
420 -31 -5
421 -18 41
422 -18 41
423 -29 37
424 -29 37
425 -29 37
426 -29 37
427 -29 37
428 -39 -35
429 -39 -35
430 -39 -35
431 -39 -35
432 -39 -35
433 -39 -35
434 -39 -35
435 -3 -24
436 -3 -24
437 -3 -24
438 -3 -24
439 -3 -24
440 -3 -24
441 24 36
442 24 36
443 24 36
444 24 36
445 -8 33
446 -8 33
447 -8 33
448 -4 36
449 -4 36
450 -4 36
451 -38 -27
452 -38 -27
453 -38 -27
454 -38 -27
455 -38 -27
456 -3 -13
457 -3 -13
458 -3 -13
459 -3 -13
460 -3 -13
461 -3 -13
462 47 -14
463 47 -14
464 47 -14
465 47 -14
466 47 -14
467 36 -20
468 36 -20
469 32 -45
470 32 -45
471 -8 3
472 -8 3
473 -8 3
474 -42 -40
475 -42 -40
476 -42 -40
477 -42 -40
478 -42 -40
479 -37 -21
480 -37 -21
481 -37 -21
482 -37 -21
483 20 -35
484 20 -35
485 20 -35
486 20 -35
487 20 -35
488 40 -19
489 40 -19
490 40 -19
491 40 -19
492 40 -19
493 40 -19
494 40 -19
495 -16 -30
496 -16 -30
497 -16 -30
498 -16 -30
499 -7 -7
500 -7 -7
501 -7 -7
502 -7 -7
503 -7 -7
504 30 38
505 30 38
506 14 -7
507 14 -7
508 14 -7
509 -22 -18
510 -22 -18
511 -22 -18
512 -22 -18
513 24 -9
514 9 -48
515 9 -48
516 9 -48
517 9 -48
518 -5 -25
519 -5 -25
520 -5 -25
521 -5 -25
522 -5 -25
523 -21 42
524 -21 42
525 -21 42
526 -22 31
527 -22 31
528 -22 31
529 -22 31
530 -22 31
531 -22 31
532 43 12
533 43 12
534 43 12
535 43 12
536 43 12
537 7 -17
538 7 -17
539 7 -17
540 -21 -41
541 -21 -41
542 -21 -41
543 2 -16
544 2 -16
545 2 -16
546 2 -16
547 2 -16
548 6 -22
549 6 -22
550 6 -22
551 -35 36
552 -35 36
553 -35 36
554 -35 36
555 -35 36
556 -35 36
557 33 41
558 25 49
559 25 49
560 25 49
561 25 49
562 25 49
563 7 10
564 7 10
565 7 10
566 7 10
567 7 10
568 7 10
569 -50 13
570 -50 13
571 -50 13
572 -50 13
573 -50 13
574 -50 13
575 -50 13
576 -41 34
577 -41 34
578 7 22
579 7 22
580 7 22
581 7 22
582 1 -40
583 1 -40
584 1 -40
585 41 -1
586 41 -1
587 41 -1
588 41 -1
589 41 -1
590 35 33
591 35 33
592 35 33
593 35 33
594 35 33
595 35 33
596 -43 21
597 -43 21
598 -43 21
599 -43 21
600 -43 21
601 12 37
602 12 37
603 12 37
604 12 37
605 6 -34
606 6 -34
607 6 -34
608 -38 12
609 -38 12
610 -38 12
611 -38 12
612 -38 12
613 -38 12
614 -6 44
615 -6 44
616 -6 44
617 -6 44
618 -6 44
619 -6 44
620 -6 44
621 16 -43
622 16 -43
623 16 -43
624 46 -26
625 46 -26
626 46 -26
627 46 -26
628 46 -26
629 28 30
630 28 30
631 28 30
632 28 30
633 28 30
634 -12 24
635 -12 24
636 -12 24
637 -12 24
638 -12 24
639 -40 -5
640 -40 -5
641 -40 -5
642 -40 -5
643 -40 -5
644 -40 -5
645 -10 8
646 -10 8
647 -10 8
648 -10 8
649 -10 8
650 -10 8
651 -30 1
652 49 -17
653 49 -17
654 49 -17
655 18 17
656 18 17
657 18 17
658 18 17
659 18 17
660 35 -5
661 35 -5
662 35 -5
663 35 -5
664 35 -5
DEMAND_SECTION
1 0
2 200
3 100
4 50
5 10
6 10
7 10
8 100
9 50
10 10
11 200
12 200
13 50
14 10
15 200
16 50
17 10
18 10
19 100
20 50
21 10
22 10
23 10
24 10
25 200
26 100
27 10
28 10
29 10
30 200
31 50
32 10
33 10
34 200
35 200
36 10
37 10
38 10
39 200
40 100
41 10
42 10
43 200
44 200
45 50
46 10
47 200
48 200
49 50
50 10
51 10
52 10
53 10
54 200
55 100
56 10
57 10
58 10
59 10
60 200
61 200
62 100
63 50
64 200
65 100
66 10
67 10
68 10
69 10
70 200
71 200
72 50
73 10
74 200
75 100
76 200
77 100
78 50
79 10
80 10
81 100
82 10
83 10
84 10
85 200
86 50
87 10
88 10
89 10
90 100
91 50
92 10
93 200
94 200
95 10
96 10
97 200
98 50
99 10
100 10
101 10
102 10
103 200
104 200
105 10
106 10
107 10
108 10
109 200
110 200
111 50
112 10
113 10
114 10
115 10
116 200
117 100
118 10
119 10
120 10
121 200
122 200
123 50
124 10
125 10
126 10
127 10
128 200
129 10
130 100
131 50
132 10
133 10
134 10
135 200
136 50
137 10
138 10
139 10
140 200
141 200
142 50
143 10
144 10
145 10
146 10
147 200
148 50
149 10
150 10
151 100
152 50
153 200
154 100
155 50
156 10
157 10
158 10
159 10
160 200
161 50
162 10
163 10
164 10
165 10
166 200
167 200
168 50
169 10
170 10
171 10
172 100
173 50
174 10
175 10
176 10
177 200
178 200
179 50
180 10
181 200
182 10
183 10
184 10
185 10
186 200
187 200
188 50
189 200
190 200
191 10
192 10
193 10
194 10
195 200
196 100
197 50
198 10
199 10
200 10
201 200
202 200
203 10
204 10
205 10
206 100
207 10
208 10
209 10
210 10
211 200
212 100
213 10
214 10
215 10
216 100
217 50
218 200
219 100
220 10
221 10
222 10
223 200
224 50
225 10
226 10
227 200
228 50
229 10
230 200
231 100
232 10
233 10
234 10
235 100
236 50
237 10
238 10
239 10
240 10
241 200
242 100
243 50
244 10
245 10
246 10
247 200
248 200
249 10
250 10
251 10
252 10
253 200
254 100
255 10
256 10
257 200
258 100
259 50
260 10
261 200
262 10
263 10
264 10
265 10
266 200
267 50
268 10
269 100
270 50
271 10
272 10
273 200
274 200
275 10
276 200
277 50
278 10
279 10
280 10
281 200
282 100
283 10
284 10
285 10
286 200
287 200
288 50
289 200
290 100
291 50
292 200
293 100
294 10
295 10
296 10
297 10
298 200
299 200
300 50
301 10
302 10
303 10
304 200
305 200
306 50
307 10
308 10
309 10
310 10
311 200
312 100
313 50
314 10
315 10
316 10
317 10
318 200
319 50
320 10
321 10
322 10
323 200
324 10
325 200
326 200
327 10
328 200
329 10
330 100
331 50
332 200
333 200
334 50
335 10
336 10
337 10
338 10
339 200
340 50
341 10
342 10
343 10
344 200
345 50
346 10
347 200
348 10
349 10
350 10
351 10
352 100
353 50
354 10
355 200
356 100
357 50
358 10
359 10
360 10
361 200
362 100
363 10
364 10
365 10
366 200
367 200
368 100
369 50
370 200
371 50
372 10
373 200
374 200
375 50
376 10
377 10
378 200
379 50
380 10
381 10
382 200
383 100
384 10
385 10
386 10
387 10
388 100
389 50
390 10
391 10
392 10
393 100
394 50
395 10
396 10
397 10
398 10
399 200
400 10
401 10
402 10
403 10
404 200
405 200
406 50
407 10
408 10
409 10
410 200
411 10
412 200
413 200
414 50
415 200
416 100
417 10
418 10
419 10
420 200
421 200
422 10
423 200
424 200
425 50
426 10
427 10
428 200
429 200
430 50
431 10
432 10
433 10
434 10
435 200
436 50
437 10
438 10
439 10
440 10
441 100
442 50
443 10
444 10
445 200
446 100
447 50
448 200
449 100
450 50
451 200
452 100
453 10
454 10
455 10
456 200
457 50
458 10
459 10
460 10
461 10
462 100
463 10
464 10
465 10
466 10
467 200
468 50
469 200
470 200
471 200
472 100
473 10
474 100
475 10
476 10
477 10
478 10
479 200
480 200
481 10
482 10
483 200
484 200
485 50
486 10
487 10
488 200
489 100
490 50
491 10
492 10
493 10
494 10
495 200
496 50
497 10
498 10
499 200
500 50
501 10
502 10
503 10
504 200
505 100
506 100
507 50
508 10
509 100
510 10
511 10
512 10
513 200
514 200
515 100
516 50
517 10
518 200
519 10
520 10
521 10
522 10
523 200
524 200
525 50
526 200
527 100
528 50
529 10
530 10
531 10
532 100
533 50
534 10
535 10
536 10
537 200
538 200
539 10
540 100
541 50
542 10
543 200
544 200
545 50
546 10
547 10
548 200
549 100
550 10
551 100
552 50
553 10
554 10
555 10
556 10
557 200
558 200
559 50
560 10
561 10
562 10
563 200
564 100
565 50
566 10
567 10
568 10
569 200
570 200
571 50
572 10
573 10
574 10
575 10
576 200
577 100
578 200
579 200
580 50
581 10
582 200
583 100
584 50
585 200
586 200
587 50
588 10
589 10
590 200
591 200
592 50
593 10
594 10
595 10
596 200
597 10
598 10
599 10
600 10
601 100
602 50
603 10
604 10
605 100
606 50
607 10
608 200
609 100
610 10
611 10
612 10
613 10
614 200
615 200
616 50
617 10
618 10
619 10
620 10
621 200
622 200
623 10
624 100
625 50
626 10
627 10
628 10
629 200
630 100
631 10
632 10
633 10
634 200
635 100
636 50
637 10
638 10
639 200
640 200
641 50
642 10
643 10
644 10
645 200
646 200
647 50
648 10
649 10
650 10
651 200
652 200
653 10
654 10
655 200
656 10
657 10
658 10
659 10
660 200
661 10
662 10
663 10
664 10
DEPOT_SECTION
1
-1
EOF