Normalized Data/p04_10_normalized_splitx10_0.sol
663 -7 108 114 111 112 113 110 109 154 153 152 156 158 182 183 184 181 -8 9 12 10 13 11 651 653 652 465 463 462 464 461 415 418 416 -17 15 16 14 117 119 118 116 115 632 631 628 630 629 -36 559 557 560 558 561 214 210 556 503 504 -40 38 41 39 28 27 24 26 25 279 277 275 278 276 269 270 -59 420 421 524 522 523 637 634 -60 61 62 102 106 103 105 107 104 213 211 212 443 442 441 -63 176 177 178 179 377 378 380 379 -67 65 66 68 64 636 633 635 525 526 147 146 -77 79 75 76 219 221 217 220 325 324 326 -87 84 86 88 85 466 467 493 487 492 490 491 489 488 507 506 -91 89 132 133 130 131 129 122 120 121 124 123 346 348 349 350 347 -93 92 95 94 505 192 193 188 191 190 189 -97 101 98 99 100 96 382 381 417 414 512 -125 126 469 468 259 256 257 258 142 621 -139 141 140 143 145 144 90 484 483 485 482 486 -149 148 555 554 551 552 553 550 576 575 360 364 362 361 363 367 368 -150 151 365 195 194 196 253 252 -157 155 47 52 46 50 48 51 49 340 341 339 338 342 627 626 625 624 623 -159 160 -161 163 -162 164 -172 174 175 173 171 371 369 370 426 422 423 424 425 527 530 528 529 -180 297 302 298 315 313 316 310 312 311 314 -185 246 248 249 247 250 251 138 137 135 134 136 356 -187 186 478 479 481 480 229 231 232 233 230 -204 203 201 202 200 55 56 57 54 53 58 2 3 662 661 663 -224 225 223 222 498 502 499 500 501 -237 238 541 540 539 44 43 42 45 351 353 352 581 -241 473 476 475 474 477 332 335 333 337 331 334 336 430 433 428 429 -255 254 198 199 197 588 585 584 586 587 6 4 1 5 660 659 386 383 384 385 -262 264 261 260 263 227 228 226 593 592 594 591 590 589 -268 271 412 411 413 239 236 234 235 497 496 494 495 -292 207 206 208 205 209 650 638 642 358 355 359 357 354 -296 293 295 607 611 609 612 610 569 574 571 570 573 568 572 598 596 599 597 595 -300 301 299 401 402 400 399 398 265 266 267 536 538 537 -307 303 304 305 306 309 308 372 375 374 376 373 -323 322 170 166 168 169 167 165 511 509 508 510 -329 330 289 290 288 614 613 617 615 619 616 618 -343 345 344 605 604 606 216 215 281 280 284 282 283 544 -366 22 23 20 19 21 18 273 272 274 535 534 532 531 533 -388 390 389 391 387 73 74 565 562 566 564 567 563 -419 640 639 643 641 410 409 328 327 608 -427 403 408 404 405 406 407 451 452 450 454 -431 432 70 69 71 72 243 240 245 242 244 128 127 453 -440 33 34 37 35 218 603 600 601 602 78 578 -446 444 445 394 395 393 392 396 397 447 449 448 -459 458 456 460 457 455 30 31 32 29 542 543 545 546 -470 472 471 294 291 644 645 649 646 647 648 -517 520 519 518 521 437 438 434 439 436 435 83 81 80 82 548 547 549 -579 580 577 285 286 287 657 658 654 656 655 -582 583 321 318 317 320 319 514 516 513 515 622 620 0 





OBJ=
4268.727
BEST_KNOWN=
0.000